StringID   Type       x          y          demand     ReadyTime  DueDate    ServiceTime
D0         d              21.467    63.338      0.000      0.000     23.983      0.000
S0         f              21.467    63.338      0.000      0.000     23.983      0.000
S1         f              80.260    19.620      0.000      0.000     23.983      0.000
S2         f              94.030    78.230      0.000      0.000     23.983      0.000
C0         c              99.637    99.729      0.006     17.885     18.352      0.053
C1         c              63.954    43.151      0.090     18.525     19.099      0.095
C2         c              46.409     4.881      0.005     18.647     19.096      0.053
C3         c              16.390    54.903      0.010     10.791     11.351      0.055
C4         c              41.968    16.507      0.001     10.664     11.118      0.050

Q Vehicle fuel tank capacity /128.7400/
C Vehicle load capacity /1.1000/
r fuel consumption rate /0.4022/
g inverse refueling rate /0.0073/
v average Velocity /42.3000/
gv charging speed /136.5800/

--------------------
instance_id /213/
number of clusters /7/
working_startTime (hour) /8.00/
working_endTime (hour) /20.50/
instance_endTime (hour) /23.98/
service_time_type /cargoweight/
demand_type /20_80/
instance_type /RC/
instance x range /[0.0, 100.0]/
instance y range /[0.0, 100.0]/
cs_time_to_depot (hour)/[1.7320524810962123,1.751190810837546]/
